ssat_solver_solve2
#level: 3
Abc_NtkNodeNum(s->pNtk): 816  , BDD limit: 10240
Build BDD success
level 2: 54 element
Exist
level 1: 4 element
Random
level 0: 30 element
Exist
c ssat solving in ABC
#var: 88
s SATISFIABLE
  > Upper bound = 5.000000e-01
  > Lower bound = 5.000000e-01
FINISHED CPU 0.37 MEM 59256 MAXMEM 59256 STALE 0 MAXMEM_RSS 16356
<time name="ALL">460</time>
real 0.50
user 0.56
sys 0.23
